24° run output:
{
    "Function": "kroA400.tsp",
    "Problem dimension": [
        176,
        267,
        253,
        345,
        248,
        220,
        160,
        74,
        361,
        148,
        198,
        162,
        352,
        269,
        389,
        9,
        399,
        325,
        291,
        219,
        101,
        358,
        42,
        146,
        60,
        292,
        6,
        13,
        196,
        2,
        277,
        250,
        33,
        149,
        94,
        213,
        261,
        195,
        4,
        181,
        169,
        165,
        351,
        52,
        395,
        370,
        182,
        268,
        157,
        192,
        56,
        346,
        152,
        372,
        221,
        208,
        354,
        46,
        145,
        328,
        201,
        153,
        229,
        216,
        61,
        204,
        92,
        18,
        159,
        331,
        207,
        237,
        310,
        252,
        381,
        147,
        223,
        53,
        365,
        316,
        233,
        128,
        163,
        308,
        37,
        63,
        343,
        288,
        299,
        388,
        366,
        11,
        359,
        353,
        65,
        93,
        249,
        317,
        242,
        98,
        79,
        170,
        227,
        184,
        29,
        26,
        154,
        336,
        21,
        222,
        305,
        50,
        87,
        284,
        396,
        364,
        231,
        137,
        197,
        218,
        321,
        314,
        377,
        135,
        178,
        32,
        73,
        91,
        387,
        187,
        259,
        55,
        374,
        38,
        82,
        385,
        275,
        270,
        66,
        78,
        355,
        81,
        108,
        232,
        127,
        254,
        296,
        347,
        380,
        190,
        48,
        263,
        168,
        34,
        1,
        131,
        295,
        287,
        103,
        322,
        139,
        155,
        199,
        143,
        281,
        85,
        260,
        390,
        239,
        90,
        133,
        121,
        45,
        114,
        212,
        130,
        324,
        164,
        118,
        280,
        125,
        51,
        251,
        200,
        398,
        99,
        95,
        383,
        341,
        258,
        68,
        378,
        109,
        123,
        17,
        209,
        132,
        320,
        306,
        256,
        30,
        172,
        235,
        111,
        309,
        142,
        301,
        265,
        226,
        217,
        116,
        202,
        70,
        27,
        57,
        107,
        100,
        76,
        186,
        391,
        339,
        382,
        330,
        397,
        119,
        392,
        150,
        225,
        303,
        279,
        134,
        75,
        20,
        312,
        329,
        19,
        302,
        106,
        285,
        40,
        211,
        283,
        318,
        369,
        240,
        105,
        31,
        166,
        113,
        271,
        376,
        89,
        350,
        393,
        373,
        386,
        234,
        141,
        126,
        122,
        191,
        224,
        102,
        362,
        294,
        215,
        39,
        337,
        36,
        315,
        262,
        371,
        335,
        117,
        273,
        140,
        151,
        112,
        342,
        255,
        278,
        368,
        64,
        96,
        43,
        230,
        171,
        83,
        319,
        84,
        124,
        188,
        307,
        138,
        338,
        16,
        67,
        344,
        323,
        71,
        104,
        304,
        210,
        334,
        7,
        12,
        289,
        340,
        293,
        236,
        360,
        72,
        266,
        47,
        77,
        8,
        41,
        311,
        194,
        348,
        49,
        363,
        62,
        180,
        257,
        156,
        24,
        161,
        357,
        203,
        332,
        44,
        35,
        327,
        246,
        356,
        86,
        179,
        384,
        205,
        241,
        14,
        88,
        80,
        189,
        173,
        193,
        206,
        110,
        282,
        23,
        244,
        185,
        22,
        297,
        286,
        115,
        10,
        25,
        158,
        276,
        175,
        238,
        120,
        183,
        15,
        298,
        174,
        0,
        272,
        247,
        313,
        54,
        333,
        59,
        274,
        129,
        228,
        290,
        349,
        136,
        177,
        214,
        167,
        58,
        367,
        379,
        243,
        245,
        264,
        5,
        394,
        300,
        326,
        144,
        28,
        375,
        3,
        69,
        97
    ],
    "Global Optimum": 0,
    "Algorithm": "Genetic algorithm",
    "Parameters": {
        "population": 30,
        "offspring": 30,
        "mutation probability": 0.0025,
        "crossover probability": 0.9
    },
    "Fitness": 429988,
    "Solution": [
        176,
        267,
        253,
        345,
        248,
        220,
        160,
        74,
        361,
        148,
        198,
        162,
        352,
        269,
        389,
        9,
        399,
        325,
        291,
        219,
        101,
        358,
        42,
        146,
        60,
        292,
        6,
        13,
        196,
        2,
        277,
        250,
        33,
        149,
        94,
        213,
        261,
        195,
        4,
        181,
        169,
        165,
        351,
        52,
        395,
        370,
        182,
        268,
        157,
        192,
        56,
        346,
        152,
        372,
        221,
        208,
        354,
        46,
        145,
        328,
        201,
        153,
        229,
        216,
        61,
        204,
        92,
        18,
        159,
        331,
        207,
        237,
        310,
        252,
        381,
        147,
        223,
        53,
        365,
        316,
        233,
        128,
        163,
        308,
        37,
        63,
        343,
        288,
        299,
        388,
        366,
        11,
        359,
        353,
        65,
        93,
        249,
        317,
        242,
        98,
        79,
        170,
        227,
        184,
        29,
        26,
        154,
        336,
        21,
        222,
        305,
        50,
        87,
        284,
        396,
        364,
        231,
        137,
        197,
        218,
        321,
        314,
        377,
        135,
        178,
        32,
        73,
        91,
        387,
        187,
        259,
        55,
        374,
        38,
        82,
        385,
        275,
        270,
        66,
        78,
        355,
        81,
        108,
        232,
        127,
        254,
        296,
        347,
        380,
        190,
        48,
        263,
        168,
        34,
        1,
        131,
        295,
        287,
        103,
        322,
        139,
        155,
        199,
        143,
        281,
        85,
        260,
        390,
        239,
        90,
        133,
        121,
        45,
        114,
        212,
        130,
        324,
        164,
        118,
        280,
        125,
        51,
        251,
        200,
        398,
        99,
        95,
        383,
        341,
        258,
        68,
        378,
        109,
        123,
        17,
        209,
        132,
        320,
        306,
        256,
        30,
        172,
        235,
        111,
        309,
        142,
        301,
        265,
        226,
        217,
        116,
        202,
        70,
        27,
        57,
        107,
        100,
        76,
        186,
        391,
        339,
        382,
        330,
        397,
        119,
        392,
        150,
        225,
        303,
        279,
        134,
        75,
        20,
        312,
        329,
        19,
        302,
        106,
        285,
        40,
        211,
        283,
        318,
        369,
        240,
        105,
        31,
        166,
        113,
        271,
        376,
        89,
        350,
        393,
        373,
        386,
        234,
        141,
        126,
        122,
        191,
        224,
        102,
        362,
        294,
        215,
        39,
        337,
        36,
        315,
        262,
        371,
        335,
        117,
        273,
        140,
        151,
        112,
        342,
        255,
        278,
        368,
        64,
        96,
        43,
        230,
        171,
        83,
        319,
        84,
        124,
        188,
        307,
        138,
        338,
        16,
        67,
        344,
        323,
        71,
        104,
        304,
        210,
        334,
        7,
        12,
        289,
        340,
        293,
        236,
        360,
        72,
        266,
        47,
        77,
        8,
        41,
        311,
        194,
        348,
        49,
        363,
        62,
        180,
        257,
        156,
        24,
        161,
        357,
        203,
        332,
        44,
        35,
        327,
        246,
        356,
        86,
        179,
        384,
        205,
        241,
        14,
        88,
        80,
        189,
        173,
        193,
        206,
        110,
        282,
        23,
        244,
        185,
        22,
        297,
        286,
        115,
        10,
        25,
        158,
        276,
        175,
        238,
        120,
        183,
        15,
        298,
        174,
        0,
        272,
        247,
        313,
        54,
        333,
        59,
        274,
        129,
        228,
        290,
        349,
        136,
        177,
        214,
        167,
        58,
        367,
        379,
        243,
        245,
        264,
        5,
        394,
        300,
        326,
        144,
        28,
        375,
        3,
        69,
        97
    ],
    "Nb of functions evaluations": 200010,
    "Computational time in seconds": 532.8329031467438,
    "Stopping criterion in evaluations": 200000
}